20
1 0 5
2 0 5
2 1 1
3 0 2
3 1 2
3 2 3
4 0 3
4 1 5
4 2 1
4 3 1
5 0 1
5 1 1
5 2 4
5 3 1
5 4 4
6 0 1
6 1 5
6 2 5
6 3 4
6 4 5
6 5 5
7 0 1
7 1 2
7 2 5
7 3 4
7 4 1
7 5 2
7 6 5
8 0 3
8 1 5
8 2 2
8 3 1
8 4 4
8 5 4
8 6 1
8 7 1
9 0 1
9 1 5
9 2 1
9 3 5
9 4 2
9 5 4
9 6 1
9 7 5
9 8 2
10 0 1
10 1 2
10 2 5
10 3 3
10 4 2
10 5 2
10 6 3
10 7 1
10 8 3
10 9 1
11 0 2
11 1 2
11 2 3
11 3 3
11 4 4
11 5 3
11 6 5
11 7 1
11 8 5
11 9 1
11 10 5
12 0 1
12 1 2
12 2 2
12 3 4
12 4 5
12 5 5
12 6 2
12 7 5
12 8 5
12 9 2
12 10 2
12 11 2
13 0 2
13 1 3
13 2 2
13 3 2
13 4 3
13 5 4
13 6 1
13 7 2
13 8 1
13 9 5
13 10 2
13 11 3
13 12 4
14 0 3
14 1 4
14 2 3
14 3 1
14 4 5
14 5 2
14 6 1
14 7 1
14 8 1
14 9 4
14 10 5
14 11 2
14 12 1
14 13 2
15 0 4
15 1 5
15 2 2
15 3 2
15 4 5
15 5 3
15 6 5
15 7 2
15 8 5
15 9 4
15 10 2
15 11 1
15 12 4
15 13 4
15 14 2
16 0 3
16 1 5
16 2 4
16 3 3
16 4 5
16 5 2
16 6 5
16 7 2
16 8 2
16 9 1
16 10 5
16 11 3
16 12 1
16 13 1
16 14 1
16 15 4
17 0 2
17 1 4
17 2 2
17 3 3
17 4 2
17 5 5
17 6 4
17 7 2
17 8 2
17 9 3
17 10 5
17 11 5
17 12 2
17 13 5
17 14 4
17 15 2
17 16 5
18 0 5
18 1 1
18 2 3
18 3 5
18 4 2
18 5 5
18 6 1
18 7 5
18 8 2
18 9 4
18 10 3
18 11 2
18 12 1
18 13 5
18 14 1
18 15 1
18 16 4
18 17 3
19 0 5
19 1 4
19 2 5
19 3 1
19 4 4
19 5 3
19 6 3
19 7 2
19 8 3
19 9 3
19 10 2
19 11 2
19 12 4
19 13 5
19 14 1
19 15 5
19 16 3
19 17 4
19 18 1
